00:00.0 clingo version 5.5.1
00:00.0 Reading from ...ols/../encodings/CTW_nat_optimal_V1.lp ...
29:59.984 UNKNOWN
30:00.32 
30:00.32 TIME LIMIT   : 1
30:00.32 Models       : 0+
30:00.32 Calls        : 1
30:00.33 Time         : 1800.134s (Solving: 0.00s 1st Model: 0.00s Unsat: 0.00s)
30:00.33 CPU Time     : 118.821s
